NAME : 10_3_3_1_(36).dat
COMMENT : Henke, Speranza, Wäscher, 2015
TYPE : MCVRP
DIMENSION : 11
EDGE_WEIGHT_TYPE : DISTANCE_MATRIX
CAPACITY : 1000
VEHICLES : 3
PRODUCT TYPES : 3
COMPARTMENTS : 3
NODE_COORD_SECTION
1 50 50
2 88.13 13.76
3 73.94 5.25
4 64.22 59.22
5 19.92 18.65
6 5.24 52.96
7 96.11 49.7
8 26.98 23.31
9 81.97 41.12
10 87.9 71.4
11 36.25 9.52
DEMAND_SECTION
1 0 0 0
2 53 0 0
3 0 93 0
4 0 0 313
5 345 0 0
6 0 124 0
7 225 0 0
8 154 0 0
9 0 113 0
10 8 0 0
11 0 140 0
DEPOT_SECTION
1
EOF